(declare-datatypes ((_type_record_1_ 0)) (((_make__type_record_1_ (_field_valid Bool) (_field_value Int)))))
(push 1)
(push 1)
(declare-fun initial_1_cache () _type_record_1_)
(assert (let ((_let_2_ (_field_value initial_1_cache))) (let ((_let_3_ (_make__type_record_1_ true _let_2_))) (let ((_let_4_ (_field_valid _let_3_))) (let ((_let_5_ (_make__type_record_1_ _let_4_ 10))) (let ((_let_6_ (_field_valid _let_5_))) (let ((_let_7_ (_make__type_record_1_ _let_6_ 2022))) (let ((_let_8_ (_field_value _let_7_))) (let ((_let_9_ (< _let_8_ 2))) _let_9_)))))))))
(push 1)
(assert (let ((_let_10_ (_field_value initial_1_cache))) (let ((_let_11_ (_make__type_record_1_ true _let_10_))) (let ((_let_12_ (_field_valid _let_11_))) (let ((_let_13_ (_make__type_record_1_ _let_12_ 10))) (let ((_let_14_ (_field_valid _let_13_))) (let ((_let_15_ (_make__type_record_1_ _let_14_ 2022))) (let ((_let_16_ (_field_value _let_15_))) (let ((_let_17_ (= _let_16_ 2022))) (let ((_let_18_ (not _let_17_))) _let_18_))))))))))
(check-sat)
(pop 1)
(push 1)
(declare-fun state_1_cache1 () _type_record_1_)
(declare-fun havoc_5___ucld_1_cache1_havoc () _type_record_1_)
(assert (let ((_let_19_ (= state_1_cache1 havoc_5___ucld_1_cache1_havoc))) _let_19_))
(push 1)
(assert (let ((_let_20_ (_field_value state_1_cache1))) (let ((_let_21_ (= _let_20_ 2022))) (let ((_let_22_ (not _let_21_))) _let_22_))))
(check-sat)
(pop 1)
(pop 1)
(pop 1)
(pop 1)
